Tried aggregator 1 time.
MIP Presolve eliminated 394 rows and 340 columns.
MIP Presolve modified 10152 coefficients.
Reduced MIP has 280 rows, 260 columns, and 5224 nonzeros.
Reduced MIP has 260 binaries, 0 generals, 0 SOSs, and 0 indicators.
Presolve time = 0,03 sec. (25,83 ticks)
Found incumbent of value 44,000000 after 0,04 sec. (35,33 ticks)
Probing time = 0,00 sec. (2,97 ticks)
Tried aggregator 1 time.
MIP Presolve eliminated 8 rows and 0 columns.
MIP Presolve modified 250 coefficients.
Reduced MIP has 272 rows, 260 columns, and 4971 nonzeros.
Reduced MIP has 260 binaries, 0 generals, 0 SOSs, and 0 indicators.
Presolve time = 0,01 sec. (8,66 ticks)
Probing time = 0,00 sec. (2,89 ticks)
Clique table members: 997.
MIP emphasis: balance optimality and feasibility.
MIP search method: dynamic search.
Parallel mode: deterministic, using up to 8 threads.
Root relaxation solution time = 0,00 sec. (0,59 ticks)

        Nodes                                         Cuts/
   Node  Left     Objective  IInf  Best Integer    Best Bound    ItCnt     Gap

*     0+    0                           44,0000        4,0000            90,91%
*     0+    0                           33,0000        4,0000            87,88%
*     0+    0                           29,0000        4,0000            86,21%
      0     0       27,6000     8       29,0000       27,6000        6    4,83%
      0     0        cutoff             29,0000                      7    0,00%
Elapsed time = 0,08 sec. (53,44 ticks, tree = 0,01 MB, solutions = 3)

Root node processing (before b&c):
  Real time             =    0,08 sec. (53,46 ticks)
Parallel b&c, 8 threads:
  Real time             =    0,00 sec. (0,00 ticks)
  Sync time (average)   =    0,00 sec.
  Wait time (average)   =    0,00 sec.
                          ------------
Total (root+branch&cut) =    0,08 sec. (53,46 ticks)

